p cnf 23 20
-1 14 -2 22 0 
-1 14 -3 7 -4 -5 -6 22 0 
-7 3 22 0 
-8 11 -2 22 0 
-9 10 -5 -6 22 0 
-10 9 -11 8 -12 22 0 
-13 -12 22 0 
-1 14 -5 -3 7 -6 22 0 
-14 1 -15 -16 19 -5 22 0 
-5 -6 22 0 
-8 11 22 0 
-9 10 -2 22 0 
-8 11 -13 -9 10 -2 22 0 
-13 -9 10 -4 -12 22 0 
-17 -18 -1 14 -19 16 22 0 
-19 16 22 0 
-6 22 0 
-20 22 0 
-10 9 22 0 
-21 23 0 
